116
0 95 32 70 18 22 14 60 13 47 
77 3 106 7 57 8 71 85 17 103 
34 40 101 79 28 50 102 108 87 68 
23 66 35 92 15 20 67 99 111 81 
26 109 33 21 16 12 44 100 1 61 
56 94 83 64 89 73 82 27 10 46 
45 53 78 62 84 49 48 115 39 9 
30 37 58 72 63 75 91 11 51 114 
88 36 76 4 52 104 5 80 19 97 
113 90 2 43 69 96 74 93 42 65 
107 38 29 55 59 31 6 110 86 105 
25 24 41 54 112 98 
